\ENCODING=ISO-8859-1
\Problem name: IloCplex

Minimize
 obj: z8 + z9 + z10 + z11 + z12 + z13 + z14 + z15 + z16 + z17 + z18 + z19 + z20
Subject To
 c1: z8 + z9 + z10 + z11 + z12 + z13 + z14 + z15 + z16 + z17 + z18 + z19 + z20
     + 2 z7 + 3 z3 + 2 z2 + 2 z5 + 2 z4 + 2 z6 + 2 z0 + 2 z1 >= 13
 c2: z7 + z3 + z2 + z5 + z4 + z6 + z0 + z1 <= 4
Bounds
 0 <= z8 <= 1
 0 <= z9 <= 1
 0 <= z10 <= 1
 0 <= z11 <= 1
 0 <= z12 <= 1
 0 <= z13 <= 1
 0 <= z14 <= 1
 0 <= z15 <= 1
 0 <= z16 <= 1
 0 <= z17 <= 1
 0 <= z18 <= 1
 0 <= z19 <= 1
 0 <= z20 <= 1
 0 <= z7 <= 1
 0 <= z3 <= 1
 0 <= z2 <= 1
 0 <= z5 <= 1
 0 <= z4 <= 1
 0 <= z6 <= 1
 0 <= z0 <= 1
 0 <= z1 <= 1
Binaries
 z8  z9  z10  z11  z12  z13  z14  z15  z16  z17  z18  z19  z20  z7  z3  z2  z5 
 z4  z6  z0  z1 
End
